c generated by Julia
p edge 29 203
e 1 2
e 1 3
e 2 3
e 1 4
e 2 4
e 1 5
e 2 5
e 3 5
e 1 6
e 2 6
e 4 6
e 1 7
e 2 7
e 4 7
e 5 7
e 1 8
e 2 8
e 3 8
e 6 8
e 7 8
e 1 9
e 3 9
e 6 9
e 1 10
e 3 10
e 4 10
e 1 11
e 5 11
e 7 11
e 9 11
e 10 11
e 1 12
e 5 12
e 8 12
e 10 12
e 11 12
e 1 13
e 6 13
e 8 13
e 9 13
e 10 13
e 12 13
e 1 14
e 4 14
e 5 14
e 6 14
e 9 14
e 11 14
e 12 14
e 1 15
e 3 15
e 4 15
e 7 15
e 9 15
e 10 15
e 13 15
e 2 16
e 3 16
e 4 16
e 9 16
e 10 16
e 12 16
e 14 16
e 2 17
e 3 17
e 5 17
e 9 17
e 11 17
e 13 17
e 15 17
e 2 18
e 4 18
e 6 18
e 10 18
e 11 18
e 14 18
e 15 18
e 17 18
e 2 19
e 5 19
e 7 19
e 10 19
e 12 19
e 13 19
e 15 19
e 16 19
e 18 19
e 2 20
e 7 20
e 8 20
e 9 20
e 11 20
e 13 20
e 14 20
e 16 20
e 17 20
e 18 20
e 19 20
e 2 21
e 4 21
e 5 21
e 6 21
e 9 21
e 12 21
e 13 21
e 16 21
e 17 21
e 19 21
e 2 22
e 3 22
e 6 22
e 8 22
e 10 22
e 11 22
e 12 22
e 16 22
e 17 22
e 18 22
e 6 23
e 7 23
e 8 23
e 9 23
e 11 23
e 12 23
e 15 23
e 18 23
e 19 23
e 21 23
e 22 23
e 4 24
e 7 24
e 8 24
e 12 24
e 13 24
e 14 24
e 15 24
e 16 24
e 17 24
e 20 24
e 22 24
e 3 25
e 5 25
e 6 25
e 8 25
e 10 25
e 13 25
e 14 25
e 18 25
e 19 25
e 20 25
e 4 26
e 5 26
e 6 26
e 7 26
e 10 26
e 11 26
e 13 26
e 17 26
e 21 26
e 22 26
e 24 26
e 25 26
e 3 27
e 4 27
e 5 27
e 8 27
e 12 27
e 14 27
e 15 27
e 17 27
e 18 27
e 21 27
e 23 27
e 24 27
e 25 27
e 3 28
e 5 28
e 6 28
e 7 28
e 9 28
e 14 28
e 15 28
e 16 28
e 19 28
e 22 28
e 23 28
e 24 28
e 25 28
e 26 28
e 3 29
e 4 29
e 7 29
e 8 29
e 9 29
e 10 29
e 11 29
e 16 29
e 20 29
e 21 29
e 23 29
e 25 29
e 26 29
e 27 29
